c 165_4_checker.cnf
c
c field = 165
c formula set type = 4_checker
c
p cnf 5 24
320 
322 
324 
326 
-318 
321 
323 
325 
327 
-319 
208 
238 
268 
298 
-178 
209 
239 
269 
299 
-179 
208 
238 
268 
298 
-358 
209 
239 
269 
299 
-359 
238 
268 
298 
358 
-208 
239 
269 
299 
359 
-209 
238 
268 
298 
358 
-388 
239 
269 
299 
359 
-389 
268 
298 
358 
388 
-238 
269 
299 
359 
389 
-239 
268 
298 
358 
388 
-418 
269 
299 
359 
389 
-419 
298 
358 
388 
418 
-268 
299 
359 
389 
419 
-269 
298 
358 
388 
418 
-448 
299 
359 
389 
419 
-449 
358 
388 
418 
448 
-298 
359 
389 
419 
449 
-299 
200 
232 
264 
296 
-168 
201 
233 
265 
297 
-169 
356 
384 
412 
440 
-328 
357 
385 
413 
441 
-329 
